4 100 1972
5 10 10 11 10 12 7 9 6 11
1 2 2 1
2
6 8
6 2
7
0 40.0 50.0 0.0 0.0 0 240
2 25.0 85.0 10.0 20.0 125 191 46 0 0 0 1 0 1 0 0 0 0
3 22.0 75.0 10.0 30.0 32 97 60 0 0 0 0 0 1 0 1 0 0
4 22.0 85.0 10.0 10.0 101 146 32 0 1 0 0 1 0 1 0 0 0
5 20.0 80.0 10.0 40.0 71 193 25 1 0 0 0 0 0 0 1 0 1
6 20.0 85.0 10.0 20.0 40 113 85 0 0 0 0 0 1 0 0 0 0
7 18.0 75.0 10.0 20.0 55 164 82 0 1 1 1 0 0 0 0 0 0
8 15.0 75.0 10.0 20.0 69 118 7 0 0 0 1 0 0 0 1 0 1
9 15.0 80.0 10.0 10.0 56 155 14 0 0 0 1 0 0 0 1 0 1
10 10.0 35.0 10.0 20.0 51 160 48 0 0 0 0 0 1 0 0 0 0
11 10.0 40.0 10.0 30.0 90 177 62 0 1 0 0 1 0 0 0 0 0
12 8.0 40.0 10.0 40.0 33 152 11 0 0 0 0 1 0 1 0 1 0
13 8.0 45.0 10.0 20.0 49 108 96 0 1 0 0 0 1 0 0 0 0
14 5.0 35.0 10.0 10.0 62 191 1 1 0 0 0 0 1 0 0 0 0
15 5.0 45.0 10.0 10.0 35 117 35 0 0 0 0 0 1 0 0 0 0
16 2.0 40.0 10.0 20.0 39 161 29 0 0 0 0 0 1 1 1 0 0
17 0.0 40.0 10.0 20.0 59 114 20 0 0 0 0 0 1 0 0 0 0
18 0.0 45.0 10.0 20.0 60 189 6 0 0 0 1 1 0 0 0 0 0
19 44.0 5.0 10.0 20.0 79 124 84 0 0 0 0 0 0 0 0 0 1
20 42.0 10.0 10.0 40.0 58 115 40 0 0 0 1 0 0 0 0 0 0
21 42.0 15.0 10.0 10.0 111 162 38 1 1 0 0 0 0 0 0 0 0
22 40.0 5.0 10.0 10.0 52 111 96 0 0 0 0 1 1 0 0 0 0
23 40.0 15.0 10.0 40.0 55 158 79 0 0 1 0 1 0 0 0 1 0
24 38.0 5.0 10.0 30.0 45 164 55 0 1 0 0 1 0 0 1 0 0
25 38.0 15.0 10.0 10.0 128 194 78 0 1 1 0 0 0 0 0 0 1
26 35.0 5.0 10.0 20.0 54 184 45 0 1 0 0 0 1 0 0 0 0
27 95.0 30.0 10.0 30.0 105 154 66 1 0 0 0 0 0 0 1 0 0
28 95.0 35.0 10.0 20.0 57 172 15 0 1 0 0 0 0 0 0 0 0
29 92.0 30.0 10.0 10.0 55 120 72 0 0 0 0 0 1 0 0 0 0
30 90.0 35.0 10.0 10.0 52 112 57 0 0 0 0 0 1 0 0 0 0
31 88.0 30.0 10.0 10.0 52 159 97 0 0 1 0 0 0 0 0 0 1
32 88.0 35.0 10.0 20.0 50 110 32 1 0 1 0 0 0 0 0 0 0
33 87.0 30.0 10.0 10.0 116 175 60 0 0 1 0 0 0 1 1 0 1
34 85.0 25.0 10.0 10.0 51 178 78 0 0 0 0 0 1 0 0 0 0
35 85.0 35.0 10.0 30.0 100 151 12 1 0 0 1 0 0 0 0 0 0
36 67.0 85.0 10.0 20.0 61 185 88 0 0 1 0 0 0 0 0 0 1
37 65.0 85.0 10.0 40.0 43 186 95 0 1 0 0 0 0 1 0 1 0
38 65.0 82.0 10.0 10.0 113 164 63 0 0 0 0 0 0 0 1 0 1
39 62.0 80.0 10.0 30.0 37 148 19 0 0 1 0 0 1 0 0 0 0
40 60.0 80.0 10.0 10.0 36 191 92 0 0 0 0 0 0 0 0 1 0
41 60.0 85.0 10.0 30.0 50 149 45 1 0 1 0 1 1 0 0 1 1
42 58.0 75.0 10.0 20.0 48 165 11 0 0 1 0 1 1 1 0 0 1
43 55.0 80.0 10.0 10.0 33 166 40 1 0 0 0 0 0 0 0 0 0
44 55.0 85.0 10.0 20.0 117 168 10 0 0 0 0 0 0 0 1 0 0
45 55.0 82.0 10.0 10.0 35 148 0 0 0 0 0 1 0 0 1 0 0
46 20.0 82.0 10.0 10.0 37 177 87 1 0 0 0 1 1 0 0 0 0
47 18.0 80.0 10.0 10.0 98 157 93 0 0 0 0 1 0 1 0 0 0
48 2.0 45.0 10.0 10.0 38 109 0 1 0 0 0 0 0 0 1 1 0
49 42.0 5.0 10.0 10.0 120 184 17 0 0 0 0 0 1 0 0 0 0
50 42.0 12.0 10.0 10.0 79 158 54 0 0 0 0 0 0 1 0 0 0
51 72.0 35.0 10.0 30.0 104 157 28 0 0 0 0 0 0 0 0 0 1
52 55.0 20.0 10.0 19.0 69 126 95 0 1 0 1 0 1 0 0 0 1
53 25.0 30.0 10.0 3.0 36 97 91 0 1 0 0 0 0 0 1 0 0
54 20.0 50.0 10.0 5.0 57 154 58 0 0 0 0 0 1 0 0 0 0
55 55.0 60.0 10.0 16.0 127 180 36 1 0 1 1 0 0 0 0 0 0
56 30.0 60.0 10.0 16.0 95 214 61 0 0 0 1 0 0 0 0 0 0
57 50.0 35.0 10.0 19.0 88 201 49 0 0 0 1 0 0 0 0 0 1
58 30.0 25.0 10.0 23.0 82 139 59 0 0 0 0 0 1 0 0 0 0
59 15.0 10.0 10.0 20.0 56 182 74 0 0 0 0 1 0 1 0 0 0
60 10.0 20.0 10.0 19.0 42 125 5 0 1 1 0 0 1 0 0 0 0
61 15.0 60.0 10.0 17.0 137 202 89 0 0 1 0 0 0 0 0 1 1
62 45.0 65.0 10.0 9.0 55 106 16 0 0 0 1 0 0 0 0 0 0
63 65.0 35.0 10.0 3.0 29 158 33 0 0 0 0 0 0 0 1 0 0
64 65.0 20.0 10.0 6.0 39 108 72 0 0 0 0 0 1 0 0 0 0
65 45.0 30.0 10.0 17.0 20 139 72 0 0 1 1 0 0 0 0 0 1
66 35.0 40.0 10.0 16.0 11 140 86 0 1 0 0 0 0 0 1 0 0
67 41.0 37.0 10.0 16.0 92 203 66 0 0 0 0 0 0 0 1 0 0
68 64.0 42.0 10.0 9.0 28 141 6 0 0 0 0 0 1 0 0 0 0
69 40.0 60.0 10.0 21.0 100 217 48 1 0 0 0 0 0 0 0 0 1
70 31.0 52.0 10.0 27.0 9 134 9 0 0 0 0 0 0 0 0 0 1
71 35.0 69.0 10.0 23.0 60 210 96 0 0 0 0 0 1 0 0 0 0
72 65.0 55.0 10.0 14.0 52 107 24 1 1 0 0 0 1 1 0 0 1
73 63.0 65.0 10.0 8.0 27 101 93 1 0 0 0 0 0 0 0 0 0
74 2.0 60.0 10.0 5.0 65 118 74 0 0 0 0 0 0 1 0 0 0
75 20.0 20.0 10.0 8.0 72 193 23 0 0 0 0 1 0 0 0 0 0
76 5.0 5.0 10.0 16.0 60 117 93 1 0 1 1 0 0 1 0 1 0
77 60.0 12.0 10.0 31.0 42 143 11 0 1 0 1 0 1 0 0 0 0
78 23.0 3.0 10.0 7.0 52 180 3 0 0 0 0 1 0 0 0 0 0
79 8.0 56.0 10.0 27.0 46 163 36 0 0 0 0 1 1 0 0 1 0
80 6.0 68.0 10.0 30.0 54 153 59 0 1 0 1 0 0 0 0 0 0
81 47.0 47.0 10.0 13.0 97 222 9 0 0 0 0 0 1 0 1 0 0
82 49.0 58.0 10.0 10.0 80 121 15 0 0 1 1 0 0 0 1 0 0
83 27.0 43.0 10.0 9.0 26 87 47 0 0 1 0 0 1 0 0 0 0
84 37.0 31.0 10.0 14.0 19 87 86 1 0 0 0 1 0 0 0 0 0
85 57.0 29.0 10.0 18.0 62 159 52 0 0 1 1 0 0 0 0 0 1
86 63.0 23.0 10.0 2.0 76 127 62 1 1 0 0 0 1 0 0 0 0
87 21.0 24.0 10.0 28.0 77 126 42 1 0 0 1 1 0 0 0 0 0
88 12.0 24.0 10.0 13.0 68 141 24 0 1 0 0 0 0 0 0 0 0
89 24.0 58.0 10.0 19.0 24 139 44 0 1 1 0 0 0 1 0 0 0
90 67.0 5.0 10.0 25.0 105 177 44 1 0 0 0 0 0 1 0 0 0
91 37.0 47.0 10.0 6.0 74 127 58 0 0 0 0 0 0 0 0 1 0
92 49.0 42.0 10.0 13.0 151 212 57 0 0 0 0 0 1 1 0 0 0
93 53.0 43.0 10.0 14.0 14 155 20 1 0 0 0 0 0 0 0 0 0
94 61.0 52.0 10.0 3.0 69 208 34 0 0 0 0 0 0 0 0 0 1
95 57.0 48.0 10.0 23.0 86 133 79 0 0 0 0 0 0 0 0 1 0
96 56.0 37.0 10.0 6.0 20 84 55 0 1 1 1 0 0 1 1 1 1
97 55.0 54.0 10.0 26.0 121 172 28 0 0 0 0 0 1 0 0 0 0
98 4.0 18.0 10.0 35.0 112 157 97 0 0 0 0 0 0 0 1 0 1
99 26.0 52.0 10.0 9.0 30 91 68 0 0 0 0 0 1 0 0 0 0
100 26.0 35.0 10.0 15.0 37 146 63 0 0 0 0 1 0 0 0 1 1
101 31.0 67.0 10.0 3.0 66 210 91 0 0 0 0 1 0 0 0 0 0